min: c;

c = 2.85545848628859 * u2_t7_h3 + 2.79343617419534 * u2_t7_h4 + 3.98825692029618 * u2_t2_h5 + 3.98825692029618 * u2_t3_h5 + 3.98825692029618 * u2_t7_h5 + 4.0905262245137 * u2_t2_h6 + 4.0905262245137 * u2_t3_h6 + 4.0905262245137 * u2_t4_h6 + 4.0905262245137 * u2_t7_h6 + 4.0905262245137 * u2_t10_h6 + 3.66742830562569 * u2_t2_h7 + 3.66742830562569 * u2_t3_h7 + 3.66742830562569 * u2_t4_h7 + 3.66742830562569 * u2_t7_h7 + 3.66742830562569 * u2_t10_h7 + 5.26118945117036 * u2_t2_h8 + 5.26118945117036 * u2_t3_h8 + 5.26118945117036 * u2_t4_h8 + 5.26118945117036 * u2_t7_h8 + 5.26118945117036 * u2_t10_h8 + 4.56960798426267 * u2_t2_h9 + 4.56960798426267 * u2_t3_h9 + 4.56960798426267 * u2_t4_h9 + 4.56960798426267 * u2_t7_h9 + 4.56960798426267 * u2_t10_h9 + 4.99440760002073 * u2_t2_h10 + 4.99440760002073 * u2_t3_h10 + 4.99440760002073 * u2_t4_h10 + 4.99440760002073 * u2_t7_h10 + 4.99440760002073 * u2_t10_h10 + 3.50347431446777 * u2_t1_h11 + 3.50347431446777 * u2_t2_h11 + 3.50347431446777 * u2_t3_h11 + 3.50347431446777 * u2_t4_h11 + 3.50347431446777 * u2_t7_h11 + 3.50347431446777 * u2_t10_h11 + 6.10991893817869 * u2_t1_h12 + 6.10991893817869 * u2_t3_h12 + 6.10991893817869 * u2_t4_h12 + 6.10991893817869 * u2_t7_h12 + 4.52339764679289 * u2_t1_h13 + 4.52339764679289 * u2_t3_h13 + 4.52339764679289 * u2_t4_h13 + 4.52339764679289 * u2_t7_h13 + 4.52339764679289 * u2_t9_h13 + 5.75082019844879 * u2_t1_h14 + 5.75082019844879 * u2_t3_h14 + 5.75082019844879 * u2_t4_h14 + 5.75082019844879 * u2_t7_h14 + 5.75082019844879 * u2_t9_h14 + 6.09832972239459 * u2_t1_h15 + 6.09832972239459 * u2_t3_h15 + 6.09832972239459 * u2_t4_h15 + 6.09832972239459 * u2_t7_h15 + 6.09832972239459 * u2_t9_h15 + 5.82849458369282 * u2_t1_h16 + 5.82849458369282 * u2_t3_h16 + 5.82849458369282 * u2_t4_h16 + 5.82849458369282 * u2_t7_h16 + 5.82849458369282 * u2_t9_h16 + 6.48229431026069 * u2_t1_h17 + 6.48229431026069 * u2_t3_h17 + 6.48229431026069 * u2_t4_h17 + 6.48229431026069 * u2_t7_h17 + 6.48229431026069 * u2_t9_h17 + 6.67350352627062 * u2_t1_h18 + 6.67350352627062 * u2_t3_h18 + 6.67350352627062 * u2_t4_h18 + 6.67350352627062 * u2_t6_h18 + 6.67350352627062 * u2_t7_h18 + 6.0011654598552 * u2_t1_h19 + 6.0011654598552 * u2_t3_h19 + 6.0011654598552 * u2_t4_h19 + 6.0011654598552 * u2_t5_h19 + 6.0011654598552 * u2_t6_h19 + 6.0011654598552 * u2_t7_h19 + 5.62270811310521 * u2_t1_h20 + 5.62270811310521 * u2_t3_h20 + 5.62270811310521 * u2_t4_h20 + 5.62270811310521 * u2_t6_h20 + 5.62270811310521 * u2_t7_h20 + 5.67959736008211 * u2_t1_h21 + 5.67959736008211 * u2_t3_h21 + 5.67959736008211 * u2_t6_h21 + 5.67959736008211 * u2_t7_h21 + 5.67959736008211 * u2_t8_h21 + 5.67316369926387 * u2_t1_h22 + 5.67316369926387 * u2_t3_h22 + 5.67316369926387 * u2_t7_h22 + 5.67316369926387 * u2_t8_h22 + 5.30959600926692 * u2_t3_h23 + 5.30959600926692 * u2_t7_h23 + 5.30959600926692 * u2_t8_h23;
0 <= u2_t1_h11 <= 1;
0 <= u2_t1_h12 <= 1;
0 <= u2_t1_h13 <= 1;
0 <= u2_t1_h14 <= 1;
0 <= u2_t1_h15 <= 1;
0 <= u2_t1_h16 <= 1;
0 <= u2_t1_h17 <= 1;
0 <= u2_t1_h18 <= 1;
0 <= u2_t1_h19 <= 1;
0 <= u2_t1_h20 <= 1;
0 <= u2_t1_h21 <= 1;
0 <= u2_t1_h22 <= 1;
u2_t1_h11 + u2_t1_h12 + u2_t1_h13 + u2_t1_h14 + u2_t1_h15 + u2_t1_h16 + u2_t1_h17 + u2_t1_h18 + u2_t1_h19 + u2_t1_h20 + u2_t1_h21 + u2_t1_h22 = 2;
0 <= u2_t2_h5 <= 1;
0 <= u2_t2_h6 <= 1;
0 <= u2_t2_h7 <= 1;
0 <= u2_t2_h8 <= 1;
0 <= u2_t2_h9 <= 1;
0 <= u2_t2_h10 <= 1;
0 <= u2_t2_h11 <= 1;
u2_t2_h5 + u2_t2_h6 + u2_t2_h7 + u2_t2_h8 + u2_t2_h9 + u2_t2_h10 + u2_t2_h11 = 2;
0 <= u2_t3_h5 <= 1;
0 <= u2_t3_h6 <= 1;
0 <= u2_t3_h7 <= 1;
0 <= u2_t3_h8 <= 1;
0 <= u2_t3_h9 <= 1;
0 <= u2_t3_h10 <= 1;
0 <= u2_t3_h11 <= 1;
0 <= u2_t3_h12 <= 1;
0 <= u2_t3_h13 <= 1;
0 <= u2_t3_h14 <= 1;
0 <= u2_t3_h15 <= 1;
0 <= u2_t3_h16 <= 1;
0 <= u2_t3_h17 <= 1;
0 <= u2_t3_h18 <= 1;
0 <= u2_t3_h19 <= 1;
0 <= u2_t3_h20 <= 1;
0 <= u2_t3_h21 <= 1;
0 <= u2_t3_h22 <= 1;
0 <= u2_t3_h23 <= 1;
u2_t3_h5 + u2_t3_h6 + u2_t3_h7 + u2_t3_h8 + u2_t3_h9 + u2_t3_h10 + u2_t3_h11 + u2_t3_h12 + u2_t3_h13 + u2_t3_h14 + u2_t3_h15 + u2_t3_h16 + u2_t3_h17 + u2_t3_h18 + u2_t3_h19 + u2_t3_h20 + u2_t3_h21 + u2_t3_h22 + u2_t3_h23 = 1;
0 <= u2_t4_h6 <= 1;
0 <= u2_t4_h7 <= 1;
0 <= u2_t4_h8 <= 1;
0 <= u2_t4_h9 <= 1;
0 <= u2_t4_h10 <= 1;
0 <= u2_t4_h11 <= 1;
0 <= u2_t4_h12 <= 1;
0 <= u2_t4_h13 <= 1;
0 <= u2_t4_h14 <= 1;
0 <= u2_t4_h15 <= 1;
0 <= u2_t4_h16 <= 1;
0 <= u2_t4_h17 <= 1;
0 <= u2_t4_h18 <= 1;
0 <= u2_t4_h19 <= 1;
0 <= u2_t4_h20 <= 1;
u2_t4_h6 + u2_t4_h7 + u2_t4_h8 + u2_t4_h9 + u2_t4_h10 + u2_t4_h11 + u2_t4_h12 + u2_t4_h13 + u2_t4_h14 + u2_t4_h15 + u2_t4_h16 + u2_t4_h17 + u2_t4_h18 + u2_t4_h19 + u2_t4_h20 = 3;
0 <= u2_t5_h19 <= 1;
u2_t5_h19 = 1;
0 <= u2_t6_h18 <= 1;
0 <= u2_t6_h19 <= 1;
0 <= u2_t6_h20 <= 1;
0 <= u2_t6_h21 <= 1;
u2_t6_h18 + u2_t6_h19 + u2_t6_h20 + u2_t6_h21 = 2;
0 <= u2_t7_h3 <= 1;
0 <= u2_t7_h4 <= 1;
0 <= u2_t7_h5 <= 1;
0 <= u2_t7_h6 <= 1;
0 <= u2_t7_h7 <= 1;
0 <= u2_t7_h8 <= 1;
0 <= u2_t7_h9 <= 1;
0 <= u2_t7_h10 <= 1;
0 <= u2_t7_h11 <= 1;
0 <= u2_t7_h12 <= 1;
0 <= u2_t7_h13 <= 1;
0 <= u2_t7_h14 <= 1;
0 <= u2_t7_h15 <= 1;
0 <= u2_t7_h16 <= 1;
0 <= u2_t7_h17 <= 1;
0 <= u2_t7_h18 <= 1;
0 <= u2_t7_h19 <= 1;
0 <= u2_t7_h20 <= 1;
0 <= u2_t7_h21 <= 1;
0 <= u2_t7_h22 <= 1;
0 <= u2_t7_h23 <= 1;
u2_t7_h3 + u2_t7_h4 + u2_t7_h5 + u2_t7_h6 + u2_t7_h7 + u2_t7_h8 + u2_t7_h9 + u2_t7_h10 + u2_t7_h11 + u2_t7_h12 + u2_t7_h13 + u2_t7_h14 + u2_t7_h15 + u2_t7_h16 + u2_t7_h17 + u2_t7_h18 + u2_t7_h19 + u2_t7_h20 + u2_t7_h21 + u2_t7_h22 + u2_t7_h23 = 3;
0 <= u2_t8_h21 <= 1;
0 <= u2_t8_h22 <= 1;
0 <= u2_t8_h23 <= 1;
u2_t8_h21 + u2_t8_h22 + u2_t8_h23 = 2;
0 <= u2_t9_h13 <= 1;
0 <= u2_t9_h14 <= 1;
0 <= u2_t9_h15 <= 1;
0 <= u2_t9_h16 <= 1;
0 <= u2_t9_h17 <= 1;
u2_t9_h13 + u2_t9_h14 + u2_t9_h15 + u2_t9_h16 + u2_t9_h17 = 1;
0 <= u2_t10_h6 <= 1;
0 <= u2_t10_h7 <= 1;
0 <= u2_t10_h8 <= 1;
0 <= u2_t10_h9 <= 1;
0 <= u2_t10_h10 <= 1;
0 <= u2_t10_h11 <= 1;
u2_t10_h6 + u2_t10_h7 + u2_t10_h8 + u2_t10_h9 + u2_t10_h10 + u2_t10_h11 = 2;
